JOBS = 1..4;
MACHINES = 1..5;
SPEED = 1;
time = array3d(JOBS,MACHINES,1..SPEED,[92,25,41,18,31,62,21,15,67,32,95,74,73,80,38,94,73,91,55,93]);
energy = array3d(JOBS,MACHINES,1..SPEED,[39,77,66,83,73,53,81,86,51,72,38,47,48,44,68,39,48,40,57,39]);
precedence = array2d(JOBS,MACHINES,[4,3,2,0,1,4,1,2,0,3,4,3,0,2,1,3,2,4,0,1]);
ME = 1;
TE = 142;
st_old = array2d(JOBS,MACHINES,[139,114,73,0,18,236,140,161,73,204,392,277,0,140,73,298,204,392,18,111]);
SpeedScaling = array2d(JOBS,MACHINES,[1,1,1,1,1,1,1,1,1,1,1,1,1,1,1,1,1,1,1,1]);
